networks/zoo_117_1370/zoo_117_1370.txt
Number of groups: 67
Flow 10: {15 29} {29 14} {14 73} 
Flow 11: {1 34} {34 15} {15 74} 
Flow 30: {38 97} 
Flow 38: {48 46} {46 105} 
Flow 73: {2 5} {5 11} {11 43} {43 102} 
Flow 102: {3 34} {34 33} {33 35} 
Flow 118: {4 36} {36 54} {54 113} 
Flow 154: {48 47} {47 106} 
Flow 170: {5 8} {8 67} 
Flow 173: {21 13} {13 72} 
Flow 182: {54 11} {11 22} {22 24} {24 83} 
Flow 200: {6 54} {54 43} 
Flow 237: {8 5} {5 54} 
Flow 244: {9 23} {23 22} {22 81} 
Flow 260: {10 57} {57 36} {36 95} 
Flow 328: {12 11} {11 45} {45 104} 
Flow 345: {13 21} {21 22} 
Flow 349: {14 29} {29 15} {15 54} {54 5} {5 64} 
Flow 374: {57 10} {10 69} 
Flow 388: {54 28} {28 87} 
Flow 392: {31 32} {32 91} 
Flow 400: {48 19} {19 40} {40 99} 
Flow 410: {34 36} {36 50} {50 109} 
Flow 431: {16 34} {34 55} {55 114} 
Flow 432: {16 36} {36 57} {57 116} 
Flow 435: {17 33} {33 15} {15 45} {45 11} 
Flow 452: {18 33} {33 31} {31 90} 
Flow 499: {11 44} {44 7} {7 66} 
Flow 517: {22 19} {19 48} {48 41} {41 100} 
Flow 565: {24 22} {22 11} {11 54} {54 6} {6 65} 
Flow 581: {25 36} {36 34} {34 93} 
Flow 594: {26 36} {36 25} {25 84} 
Flow 618: {28 54} {54 36} {36 55} 
Flow 646: {29 58} {58 39} {39 98} 
Flow 685: {33 18} {18 55} {55 37} {37 96} 
Flow 703: {32 31} {31 33} 
Flow 764: {15 56} {56 115} 
Flow 823: {35 33} {33 34} {34 51} {51 110} 
Flow 826: {35 36} {36 38} {38 58} 
Flow 846: {29 88} 
Flow 883: {37 55} {55 18} {18 77} 
Flow 893: {37 36} {36 35} {35 94} 
Flow 948: {40 19} {19 42} {42 101} 
Flow 964: {41 48} 
Flow 979: {42 19} {19 22} {22 21} {21 80} 
Flow 985: {19 54} {54 15} {15 33} {33 92} 
Flow 1003: {43 11} {11 70} 
Flow 1012: {43 54} {54 58} {58 117} 
Flow 1014: {44 11} {11 5} {5 2} {2 61} 
Flow 1024: {7 54} {54 19} {19 78} 
Flow 1052: {47 48} 
Flow 1109: {49 48} {48 15} {15 34} {34 16} {16 75} 
Flow 1134: {15 27} {27 86} 
Flow 1138: {50 36} {36 37} 
Flow 1151: {51 34} {34 3} {3 62} 
Flow 1157: {22 23} {23 9} {9 68} 
Flow 1196: {36 39} {39 53} {53 112} 
Flow 1209: {39 36} {36 26} {26 85} 
Flow 1215: {53 39} {39 58} 
Flow 1230: {33 17} {17 76} 
Flow 1269: {55 34} {34 1} {1 60} 
Flow 1271: {55 36} {36 4} {4 63} 
Flow 1333: {58 29} {29 30} {30 89} 
Flow 1344: {58 54} {54 7} {7 44} {44 103} 
Flow 1348: {48 49} {49 108} 
Flow 1350: {58 38} {38 36} {36 16} {16 52} {52 111} 
Flow 1365: {59 45} {45 15} {15 48} {48 107} 
Time taken running everything: 118 seconds
