networks/zoo_117_1370/standard/zoo_117_1370.sol
<?xml version = "1.0" encoding="UTF-8" standalone="yes"?>
<CPLEXSolution version="1.2">
 <header
   problemName="networks/zoo_117_1370/zoo_117_1370.lp"
   solutionName="incumbent"
   solutionIndex="-1"
   objectiveValue="67"
   solutionTypeValue="3"
   solutionTypeString="primal"
   solutionStatusValue="101"
   solutionStatusString="integer optimal solution"
   solutionMethodString="mip"
   primalFeasible="1"
   dualFeasible="1"
   MIPNodes="0"
   MIPIterations="45062"
   writeLevel="3"/>
 <quality
   epInt="1.0000000000000001e-05"
   epRHS="9.9999999999999995e-07"
   maxIntInfeas="0"
   maxPrimalInfeas="2.000000165480742e-09"
   maxX="4"
   maxSlack="10"/>
 <variables>
  <variable name="Y(30,38)" index="3313" value="1"/>
  <variable name="Y(43,52)" index="4796" value="1"/>
  <variable name="Y(59,19)" index="6572" value="1"/>
  <variable name="Y(100,33)" index="11218" value="1"/>
  <variable name="Y(112,49)" index="12590" value="1"/>
  <variable name="Y(118,54)" index="13273" value="1"/>
  <variable name="Y(174,14)" index="19562" value="1"/>
  <variable name="Y(177,17)" index="19904" value="1"/>
  <variable name="Y(180,21)" index="20246" value="1"/>
  <variable name="Y(228,5)" index="25655" value="1"/>
  <variable name="Y(250,23)" index="28158" value="1"/>
  <variable name="Y(263,55)" index="29659" value="1"/>
  <variable name="Y(298,40)" index="33599" value="1"/>
  <variable name="Y(313,56)" index="35310" value="1"/>
  <variable name="Y(328,45)" index="36994" value="1"/>
  <variable name="Y(336,21)" index="37874" value="1"/>
  <variable name="Y(353,29)" index="39803" value="1"/>
  <variable name="Y(372,8)" index="41930" value="1"/>
  <variable name="Y(374,10)" index="42158" value="1"/>
  <variable name="Y(376,13)" index="42387" value="1"/>
  <variable name="Y(389,29)" index="43871" value="1"/>
  <variable name="Y(395,33)" index="44553" value="1"/>
  <variable name="Y(410,50)" index="46265" value="1"/>
  <variable name="Y(426,26)" index="48049" value="1"/>
  <variable name="Y(431,34)" index="48622" value="1"/>
  <variable name="Y(435,11)" index="49052" value="1"/>
  <variable name="Y(450,25)" index="50760" value="1"/>
  <variable name="Y(452,31)" index="50992" value="1"/>
  <variable name="Y(499,7)" index="56280" value="1"/>
  <variable name="Y(517,41)" index="58347" value="1"/>
  <variable name="Y(565,6)" index="63737" value="1"/>
  <variable name="Y(583,51)" index="65815" value="1"/>
  <variable name="Y(603,57)" index="68081" value="1"/>
  <variable name="Y(615,36)" index="69416" value="1"/>
  <variable name="Y(646,39)" index="72922" value="1"/>
  <variable name="Y(685,55)" index="77345" value="1"/>
  <variable name="Y(715,31)" index="80711" value="1"/>
  <variable name="Y(790,28)" index="89183" value="1"/>
  <variable name="Y(807,46)" index="91122" value="1"/>
  <variable name="Y(820,1)" index="92547" value="1"/>
  <variable name="Y(826,38)" index="93261" value="1"/>
  <variable name="Y(863,47)" index="97451" value="1"/>
  <variable name="Y(883,18)" index="99683" value="1"/>
  <variable name="Y(893,35)" index="100829" value="1"/>
  <variable name="Y(948,42)" index="107051" value="1"/>
  <variable name="Y(961,34)" index="108512" value="1"/>
  <variable name="Y(991,54)" index="111922" value="1"/>
  <variable name="Y(1001,5)" index="113004" value="1"/>
  <variable name="Y(1012,54)" index="114295" value="1"/>
  <variable name="Y(1014,2)" index="114470" value="1"/>
  <variable name="Y(1019,9)" index="115042" value="1"/>
  <variable name="Y(1029,27)" index="116189" value="1"/>
  <variable name="Y(1037,43)" index="117109" value="1"/>
  <variable name="Y(1050,22)" index="118557" value="1"/>
  <variable name="Y(1113,49)" index="125703" value="1"/>
  <variable name="Y(1121,4)" index="126563" value="1"/>
  <variable name="Y(1151,3)" index="129952" value="1"/>
  <variable name="Y(1206,16)" index="136180" value="1"/>
  <variable name="Y(1215,58)" index="137238" value="1"/>
  <variable name="Y(1235,24)" index="139464" value="1"/>
  <variable name="Y(1243,32)" index="140376" value="1"/>
  <variable name="Y(1264,53)" index="142770" value="1"/>
  <variable name="Y(1276,15)" index="144089" value="1"/>
  <variable name="Y(1333,30)" index="150544" value="1"/>
  <variable name="Y(1339,37)" index="151229" value="1"/>
  <variable name="Y(1344,44)" index="151801" value="1"/>
  <variable name="Y(1365,48)" index="154178" value="1"/>
  <variable name="X(1,34,43)" index="154852" value="1"/>
  <variable name="X(1,60,820)" index="156999" value="1"/>
  <variable name="X(2,5,59)" index="157608" value="1"/>
  <variable name="X(2,61,1014)" index="159933" value="1"/>
  <variable name="X(3,34,100)" index="160389" value="1"/>
  <variable name="X(3,62,1151)" index="162810" value="1"/>
  <variable name="X(4,36,118)" index="163147" value="1"/>
  <variable name="X(4,63,1121)" index="165520" value="1"/>
  <variable name="X(5,2,1014)" index="166783" value="1"/>
  <variable name="X(5,8,372)" index="167511" value="1"/>
  <variable name="X(5,11,228)" index="168737" value="1"/>
  <variable name="X(5,54,59)" index="169938" value="1"/>
  <variable name="X(5,64,1001)" index="172250" value="1"/>
  <variable name="X(6,54,180)" index="172799" value="1"/>
  <variable name="X(6,65,565)" index="174554" value="1"/>
  <variable name="X(7,44,1344)" index="176703" value="1"/>
  <variable name="X(7,54,1029)" index="177758" value="1"/>
  <variable name="X(7,66,499)" index="178598" value="1"/>
  <variable name="X(8,5,228)" index="179697" value="1"/>
  <variable name="X(8,67,372)" index="181211" value="1"/>
  <variable name="X(9,23,250)" index="182459" value="1"/>
  <variable name="X(9,68,1019)" index="184598" value="1"/>
  <variable name="X(10,57,263)" index="185212" value="1"/>
  <variable name="X(10,69,374)" index="186693" value="1"/>
  <variable name="X(11,5,1001)" index="188690" value="1"/>
  <variable name="X(11,22,180)" index="189239" value="1"/>
  <variable name="X(11,43,1037)" index="191466" value="1"/>
  <variable name="X(11,44,499)" index="192298" value="1"/>
  <variable name="X(11,45,328)" index="193497" value="1"/>
  <variable name="X(11,54,565)" index="195104" value="1"/>
  <variable name="X(11,70,435)" index="196344" value="1"/>
  <variable name="X(12,11,328)" index="197607" value="1"/>
  <variable name="X(13,21,336)" index="198985" value="1"/>
  <variable name="X(13,72,376)" index="200395" value="1"/>
  <variable name="X(14,29,353)" index="201742" value="1"/>
  <variable name="X(14,73,174)" index="202933" value="1"/>
  <variable name="X(15,27,1029)" index="205158" value="1"/>
  <variable name="X(15,29,174)" index="205673" value="1"/>
  <variable name="X(15,33,177)" index="207046" value="1"/>
  <variable name="X(15,34,961)" index="209200" value="1"/>
  <variable name="X(15,45,435)" index="210044" value="1"/>
  <variable name="X(15,48,1365)" index="212344" value="1"/>
  <variable name="X(15,54,372)" index="212721" value="1"/>
  <variable name="X(15,56,313)" index="214032" value="1"/>
  <variable name="X(15,74,1276)" index="216365" value="1"/>
  <variable name="X(16,34,431)" index="216890" value="1"/>
  <variable name="X(16,36,426)" index="218255" value="1"/>
  <variable name="X(16,52,43)" index="219242" value="1"/>
  <variable name="X(16,75,1206)" index="221775" value="1"/>
  <variable name="X(17,33,435)" index="222374" value="1"/>
  <variable name="X(17,76,177)" index="223486" value="1"/>
  <variable name="X(18,33,452)" index="225131" value="1"/>
  <variable name="X(18,55,685)" index="226734" value="1"/>
  <variable name="X(18,77,883)" index="228302" value="1"/>
  <variable name="X(19,22,1050)" index="229839" value="1"/>
  <variable name="X(19,40,298)" index="230457" value="1"/>
  <variable name="X(19,42,948)" index="232477" value="1"/>
  <variable name="X(19,48,517)" index="233416" value="1"/>
  <variable name="X(19,54,991)" index="235260" value="1"/>
  <variable name="X(19,78,59)" index="235698" value="1"/>
  <variable name="X(21,13,376)" index="237385" value="1"/>
  <variable name="X(21,22,336)" index="238715" value="1"/>
  <variable name="X(21,80,180)" index="239929" value="1"/>
  <variable name="X(22,11,565)" index="241684" value="1"/>
  <variable name="X(22,19,298)" index="242787" value="1"/>
  <variable name="X(22,21,180)" index="244039" value="1"/>
  <variable name="X(22,23,1019)" index="246248" value="1"/>
  <variable name="X(22,24,1235)" index="247834" value="1"/>
  <variable name="X(22,81,1050)" index="249019" value="1"/>
  <variable name="X(23,9,1019)" index="250358" value="1"/>
  <variable name="X(23,22,250)" index="250959" value="1"/>
  <variable name="X(24,22,565)" index="252644" value="1"/>
  <variable name="X(24,83,1235)" index="254684" value="1"/>
  <variable name="X(25,36,583)" index="255402" value="1"/>
  <variable name="X(25,84,450)" index="256639" value="1"/>
  <variable name="X(26,36,603)" index="258162" value="1"/>
  <variable name="X(26,85,426)" index="259355" value="1"/>
  <variable name="X(27,86,1029)" index="261328" value="1"/>
  <variable name="X(28,54,615)" index="262284" value="1"/>
  <variable name="X(28,87,790)" index="263829" value="1"/>
  <variable name="X(29,14,174)" index="264583" value="1"/>
  <variable name="X(29,15,353)" index="266132" value="1"/>
  <variable name="X(29,30,1333)" index="268482" value="1"/>
  <variable name="X(29,58,646)" index="269165" value="1"/>
  <variable name="X(29,88,389)" index="270278" value="1"/>
  <variable name="X(30,89,1333)" index="272592" value="1"/>
  <variable name="X(31,32,1243)" index="273872" value="1"/>
  <variable name="X(31,33,715)" index="274714" value="1"/>
  <variable name="X(31,90,452)" index="275821" value="1"/>
  <variable name="X(32,31,715)" index="277454" value="1"/>
  <variable name="X(32,91,1243)" index="279352" value="1"/>
  <variable name="X(33,15,435)" index="279914" value="1"/>
  <variable name="X(33,17,177)" index="281026" value="1"/>
  <variable name="X(33,18,685)" index="282904" value="1"/>
  <variable name="X(33,31,452)" index="284041" value="1"/>
  <variable name="X(33,34,820)" index="285779" value="1"/>
  <variable name="X(33,35,395)" index="286724" value="1"/>
  <variable name="X(33,92,100)" index="287799" value="1"/>
  <variable name="X(34,1,820)" index="289889" value="1"/>
  <variable name="X(34,3,1151)" index="291590" value="1"/>
  <variable name="X(34,15,1276)" index="293085" value="1"/>
  <variable name="X(34,16,43)" index="293222" value="1"/>
  <variable name="X(34,33,100)" index="294649" value="1"/>
  <variable name="X(34,36,410)" index="296329" value="1"/>
  <variable name="X(34,51,583)" index="297872" value="1"/>
  <variable name="X(34,55,431)" index="299090" value="1"/>
  <variable name="X(34,93,961)" index="300990" value="1"/>
  <variable name="X(35,33,820)" index="302219" value="1"/>
  <variable name="X(35,36,826)" index="303595" value="1"/>
  <variable name="X(35,94,893)" index="305032" value="1"/>
  <variable name="X(36,4,1121)" index="306630" value="1"/>
  <variable name="X(36,16,1206)" index="308085" value="1"/>
  <variable name="X(36,25,450)" index="308699" value="1"/>
  <variable name="X(36,26,426)" index="310045" value="1"/>
  <variable name="X(36,34,583)" index="311572" value="1"/>
  <variable name="X(36,35,893)" index="313252" value="1"/>
  <variable name="X(36,37,1339)" index="315068" value="1"/>
  <variable name="X(36,38,826)" index="315925" value="1"/>
  <variable name="X(36,39,1264)" index="317733" value="1"/>
  <variable name="X(36,50,410)" index="318249" value="1"/>
  <variable name="X(36,54,118)" index="319327" value="1"/>
  <variable name="X(36,55,263)" index="320842" value="1"/>
  <variable name="X(36,57,603)" index="322552" value="1"/>
  <variable name="X(36,95,615)" index="323934" value="1"/>
  <variable name="X(37,36,893)" index="325582" value="1"/>
  <variable name="X(37,55,883)" index="326942" value="1"/>
  <variable name="X(37,96,1339)" index="328768" value="1"/>
  <variable name="X(38,36,1339)" index="330138" value="1"/>
  <variable name="X(38,58,826)" index="330995" value="1"/>
  <variable name="X(38,97,30)" index="331569" value="1"/>
  <variable name="X(39,36,1206)" index="334115" value="1"/>
  <variable name="X(39,53,1264)" index="335543" value="1"/>
  <variable name="X(39,58,1215)" index="336864" value="1"/>
  <variable name="X(39,98,646)" index="337665" value="1"/>
  <variable name="X(40,19,948)" index="339337" value="1"/>
  <variable name="X(40,99,298)" index="340057" value="1"/>
  <variable name="X(41,48,961)" index="342090" value="1"/>
  <variable name="X(41,100,517)" index="343016" value="1"/>
  <variable name="X(42,19,991)" index="344860" value="1"/>
  <variable name="X(42,101,948)" index="346187" value="1"/>
  <variable name="X(43,11,1001)" index="347610" value="1"/>
  <variable name="X(43,54,1012)" index="348991" value="1"/>
  <variable name="X(43,102,1037)" index="350386" value="1"/>
  <variable name="X(44,7,499)" index="351218" value="1"/>
  <variable name="X(44,11,1037)" index="353126" value="1"/>
  <variable name="X(44,103,1344)" index="354803" value="1"/>
  <variable name="X(45,11,435)" index="355264" value="1"/>
  <variable name="X(45,15,1365)" index="357564" value="1"/>
  <variable name="X(45,104,328)" index="357897" value="1"/>
  <variable name="X(46,105,807)" index="359746" value="1"/>
  <variable name="X(47,48,1050)" index="361359" value="1"/>
  <variable name="X(47,106,863)" index="362542" value="1"/>
  <variable name="X(48,15,961)" index="364010" value="1"/>
  <variable name="X(48,19,1050)" index="365469" value="1"/>
  <variable name="X(48,41,517)" index="366306" value="1"/>
  <variable name="X(48,46,807)" index="367966" value="1"/>
  <variable name="X(48,47,863)" index="369392" value="1"/>
  <variable name="X(48,49,112)" index="370011" value="1"/>
  <variable name="X(48,107,1365)" index="372634" value="1"/>
  <variable name="X(49,48,1113)" index="373752" value="1"/>
  <variable name="X(49,108,112)" index="374121" value="1"/>
  <variable name="X(50,36,1121)" index="376500" value="1"/>
  <variable name="X(50,109,410)" index="377159" value="1"/>
  <variable name="X(51,34,1151)" index="379270" value="1"/>
  <variable name="X(51,110,583)" index="380072" value="1"/>
  <variable name="X(52,111,43)" index="380902" value="1"/>
  <variable name="X(53,39,1215)" index="383444" value="1"/>
  <variable name="X(53,112,1264)" index="384863" value="1"/>
  <variable name="X(54,5,372)" index="385341" value="1"/>
  <variable name="X(54,6,565)" index="386904" value="1"/>
  <variable name="X(54,7,1344)" index="389053" value="1"/>
  <variable name="X(54,11,180)" index="389259" value="1"/>
  <variable name="X(54,15,1029)" index="391478" value="1"/>
  <variable name="X(54,19,59)" index="391878" value="1"/>
  <variable name="X(54,28,790)" index="393979" value="1"/>
  <variable name="X(54,36,615)" index="395174" value="1"/>
  <variable name="X(54,43,991)" index="396920" value="1"/>
  <variable name="X(54,58,1012)" index="398311" value="1"/>
  <variable name="X(54,113,118)" index="398787" value="1"/>
  <variable name="X(55,18,883)" index="400922" value="1"/>
  <variable name="X(55,34,1276)" index="402685" value="1"/>
  <variable name="X(55,36,450)" index="403229" value="1"/>
  <variable name="X(55,37,685)" index="404834" value="1"/>
  <variable name="X(55,114,263)" index="405782" value="1"/>
  <variable name="X(56,115,313)" index="407202" value="1"/>
  <variable name="X(57,10,374)" index="408633" value="1"/>
  <variable name="X(57,36,263)" index="409892" value="1"/>
  <variable name="X(57,116,603)" index="411602" value="1"/>
  <variable name="X(58,29,1333)" index="413702" value="1"/>
  <variable name="X(58,38,1339)" index="415078" value="1"/>
  <variable name="X(58,39,646)" index="415755" value="1"/>
  <variable name="X(58,54,1344)" index="417823" value="1"/>
  <variable name="X(58,117,1215)" index="419064" value="1"/>
  <variable name="X(59,45,1365)" index="420584" value="1"/>
  <variable name="C(43,34)" index="420788" value="1"/>
  <variable name="C(43,16)" index="420789" value="2"/>
  <variable name="C(43,52)" index="420790" value="3"/>
  <variable name="C(59,5)" index="420857" value="1"/>
  <variable name="C(59,54)" index="420858" value="2"/>
  <variable name="C(59,19)" index="420859" value="3"/>
  <variable name="C(100,34)" index="421050" value="1"/>
  <variable name="C(100,33)" index="421051" value="2"/>
  <variable name="C(112,49)" index="421103" value="1"/>
  <variable name="C(118,36)" index="421124" value="1"/>
  <variable name="C(118,54)" index="421125" value="2"/>
  <variable name="C(174,29)" index="421351" value="1.0000000010000001"/>
  <variable name="C(174,14)" index="421352" value="2.0000000010000001"/>
  <variable name="C(177,33)" index="421363" value="1"/>
  <variable name="C(177,17)" index="421364" value="2"/>
  <variable name="C(180,54)" index="421374" value="1"/>
  <variable name="C(180,11)" index="421375" value="1.9999999999999996"/>
  <variable name="C(180,22)" index="421376" value="2.9999999999999996"/>
  <variable name="C(180,21)" index="421377" value="4"/>
  <variable name="C(228,5)" index="421569" value="1"/>
  <variable name="C(250,23)" index="421686" value="1"/>
  <variable name="C(263,57)" index="421750" value="1"/>
  <variable name="C(263,36)" index="421751" value="2"/>
  <variable name="C(263,55)" index="421752" value="3"/>
  <variable name="C(298,19)" index="421888" value="1"/>
  <variable name="C(298,40)" index="421889" value="1.9999999999999991"/>
  <variable name="C(313,56)" index="421947" value="1"/>
  <variable name="C(328,11)" index="422009" value="1"/>
  <variable name="C(328,45)" index="422010" value="2"/>
  <variable name="C(336,21)" index="422048" value="1"/>
  <variable name="C(353,29)" index="422144" value="1"/>
  <variable name="C(372,54)" index="422226" value="1"/>
  <variable name="C(372,5)" index="422227" value="2"/>
  <variable name="C(372,8)" index="422228" value="3"/>
  <variable name="C(374,10)" index="422239" value="1"/>
  <variable name="C(376,13)" index="422248" value="1"/>
  <variable name="C(410,36)" index="422358" value="1"/>
  <variable name="C(410,50)" index="422359" value="2"/>
  <variable name="C(426,36)" index="422414" value="1"/>
  <variable name="C(426,26)" index="422415" value="2"/>
  <variable name="C(431,34)" index="422427" value="1"/>
  <variable name="C(435,33)" index="422441" value="1"/>
  <variable name="C(435,15)" index="422442" value="2"/>
  <variable name="C(435,45)" index="422443" value="3"/>
  <variable name="C(435,11)" index="422444" value="4"/>
  <variable name="C(450,36)" index="422509" value="1"/>
  <variable name="C(450,25)" index="422510" value="2"/>
  <variable name="C(452,33)" index="422516" value="1"/>
  <variable name="C(452,31)" index="422517" value="2"/>
  <variable name="C(499,44)" index="422689" value="1"/>
  <variable name="C(499,7)" index="422690" value="2"/>
  <variable name="C(517,48)" index="422767" value="1"/>
  <variable name="C(517,41)" index="422768" value="2"/>
  <variable name="C(565,22)" index="422994" value="1"/>
  <variable name="C(565,11)" index="422995" value="2"/>
  <variable name="C(565,54)" index="422996" value="3"/>
  <variable name="C(565,6)" index="422997" value="4"/>
  <variable name="C(583,36)" index="423072" value="1"/>
  <variable name="C(583,34)" index="423073" value="2"/>
  <variable name="C(583,51)" index="423074" value="3"/>
  <variable name="C(603,36)" index="423145" value="1"/>
  <variable name="C(603,57)" index="423146" value="2"/>
  <variable name="C(615,54)" index="423191" value="1"/>
  <variable name="C(615,36)" index="423192" value="2"/>
  <variable name="C(646,58)" index="423317" value="1"/>
  <variable name="C(646,39)" index="423318" value="2"/>
  <variable name="C(685,18)" index="423489" value="1"/>
  <variable name="C(685,55)" index="423490" value="2"/>
  <variable name="C(715,32)" index="423639" value="3"/>
  <variable name="C(715,31)" index="423640" value="4"/>
  <variable name="C(790,28)" index="423934" value="1"/>
  <variable name="C(807,46)" index="423994" value="1"/>
  <variable name="C(820,33)" index="424034" value="1"/>
  <variable name="C(820,34)" index="424035" value="2"/>
  <variable name="C(820,1)" index="424036" value="3"/>
  <variable name="C(826,36)" index="424054" value="1"/>
  <variable name="C(826,38)" index="424055" value="2"/>
  <variable name="C(863,47)" index="424187" value="1"/>
  <variable name="C(883,55)" index="424259" value="1"/>
  <variable name="C(883,18)" index="424260" value="1.9999999999999991"/>
  <variable name="C(893,36)" index="424300" value="1"/>
  <variable name="C(893,35)" index="424301" value="2"/>
  <variable name="C(948,19)" index="424518" value="1"/>
  <variable name="C(948,42)" index="424519" value="2"/>
  <variable name="C(961,48)" index="424576" value="1"/>
  <variable name="C(961,15)" index="424577" value="2"/>
  <variable name="C(961,34)" index="424578" value="3"/>
  <variable name="C(991,19)" index="424715" value="1"/>
  <variable name="C(991,54)" index="424716" value="2"/>
  <variable name="C(1001,11)" index="424760" value="0.99999999999999978"/>
  <variable name="C(1001,5)" index="424761" value="1.9999999999999998"/>
  <variable name="C(1012,54)" index="424797" value="1"/>
  <variable name="C(1014,2)" index="424808" value="1"/>
  <variable name="C(1019,23)" index="424826" value="1"/>
  <variable name="C(1019,9)" index="424827" value="2"/>
  <variable name="C(1029,54)" index="424868" value="1"/>
  <variable name="C(1029,15)" index="424869" value="2"/>
  <variable name="C(1029,27)" index="424870" value="3"/>
  <variable name="C(1037,11)" index="424907" value="1"/>
  <variable name="C(1037,43)" index="424908" value="2"/>
  <variable name="C(1050,48)" index="424966" value="1"/>
  <variable name="C(1050,19)" index="424967" value="2"/>
  <variable name="C(1050,22)" index="424968" value="3"/>
  <variable name="C(1121,36)" index="425263" value="1"/>
  <variable name="C(1121,4)" index="425264" value="2"/>
  <variable name="C(1151,34)" index="425383" value="1"/>
  <variable name="C(1151,3)" index="425384" value="2"/>
  <variable name="C(1206,36)" index="425640" value="1"/>
  <variable name="C(1206,16)" index="425641" value="2.0000000020000002"/>
  <variable name="C(1215,53)" index="425676" value="2"/>
  <variable name="C(1215,39)" index="425677" value="3"/>
  <variable name="C(1215,58)" index="425678" value="4"/>
  <variable name="C(1235,24)" index="425743" value="1"/>
  <variable name="C(1243,32)" index="425770" value="1"/>
  <variable name="C(1264,39)" index="425837" value="1"/>
  <variable name="C(1264,53)" index="425838" value="2"/>
  <variable name="C(1276,34)" index="425881" value="1"/>
  <variable name="C(1276,15)" index="425882" value="2"/>
  <variable name="C(1333,29)" index="426090" value="1"/>
  <variable name="C(1333,30)" index="426091" value="2"/>
  <variable name="C(1339,38)" index="426113" value="1"/>
  <variable name="C(1339,36)" index="426114" value="2"/>
  <variable name="C(1339,37)" index="426115" value="3"/>
  <variable name="C(1344,54)" index="426131" value="1"/>
  <variable name="C(1344,7)" index="426132" value="2"/>
  <variable name="C(1344,44)" index="426133" value="3"/>
  <variable name="C(1365,45)" index="426225" value="1"/>
  <variable name="C(1365,15)" index="426226" value="2"/>
  <variable name="C(1365,48)" index="426227" value="2.9999999999999991"/>
 </variables>
</CPLEXSolution>
